NAME: SYNTHETIC-M-n32-k5
COMMENT: Synthetic instance, optimal estimate: 411.5, min vehicles: 3
TYPE: CVRP
DIMENSION: 32
EDGE_WEIGHT_TYPE: EUC_2D
CAPACITY: 100
NODE_COORD_SECTION
1 0.0 0.0
2 27.9 0.3
3 28.8 16.4
4 20.1 1.1
5 31.2 -4.5
6 33.9 10.6
7 28.9 -3.5
8 32.9 -5.5
9 0.2 38.5
10 13.5 37.2
11 2.9 39.0
12 8.2 36.5
13 20.7 22.5
14 21.8 32.2
15 -35.1 7.2
16 -32.2 19.1
17 -27.6 19.8
18 -24.1 17.2
19 -29.9 22.9
20 -19.3 17.6
21 -26.0 -18.5
22 -31.8 -18.6
23 -35.8 -10.8
24 -38.1 -15.3
25 -31.8 -24.5
26 -36.1 -28.3
27 5.7 -37.7
28 16.3 -37.2
29 18.5 -34.3
30 8.8 -39.4
31 13.0 -37.2
32 9.9 -30.4
DEMAND_SECTION
1 0
2 9
3 9
4 3
5 2
6 1
7 20
8 10
9 1
10 5
11 10
12 1
13 6
14 4
15 2
16 2
17 7
18 20
19 18
20 2
21 7
22 6
23 29
24 10
25 7
26 5
27 1
28 3
29 6
30 1
31 8
32 6
DEPOT_SECTION
1
-1
EOF
